300
[30,38,39,40,42,44,47,48,51,52,53,56,59,63,64,66,68,69,74,75,76,77,78,81,89,91,95,98,99,100,101,106,112,113,114,116,117,120,123,124,125,126,131,132,133,136,138,139,143,145,146,147,148,150,151,152,153,155,158,161,163,164,167,170,172,173,175,176,181,185,186,192,199,201,205,206]
[1,1,2,3,1,1,1,1,2,1,1,1,2,3,1,1,1,2,1,3,1,2,1,2,1,1,1,1,1,1,1,2,3,2,1,1,1,1,1,1,1,1,1,1,1,3,1,1,2,2,1,1,1,1,1,2,1,1,1,1,1,1,1,1,1,1,1,1,1,1,1,2,1,1,3,1]
